p cnf 165 418
-1 88 0 
-2 89 0 
-3 95 0 
-4 98 0 
-4 89 0 
-4 101 0 
-4 84 0 
-5 93 0 
-5 97 0 
-5 87 0 
-5 88 0 
-5 96 0 
-6 84 0 
-7 91 0 
-8 86 0 
-9 85 0 
-10 87 0 
-11 93 0 
-12 92 0 
-12 89 0 
-12 101 0 
-12 86 0 
-13 98 0 
-14 94 0 
-15 97 0 
-16 90 0 
-17 82 0 
-17 83 0 
-17 97 0 
-17 100 0 
-17 85 0 
-17 87 0 
-17 88 0 
-18 82 0 
-19 101 0 
-20 94 0 
-20 95 0 
-20 90 0 
-20 91 0 
-20 99 0 
-21 83 0 
-22 92 0 
-23 100 0 
-24 96 0 
-25 99 0 
-1 109 0 
-2 111 0 
-3 120 0 
-4 102 0 
-4 -122 0 
-5 114 0 
-5 -116 0 
-6 105 0 
-7 113 0 
-8 107 0 
-9 108 0 
-10 110 0 
-11 116 0 
-12 125 0 
-12 -115 0 
-13 122 0 
-14 117 0 
-15 123 0 
-16 112 0 
-17 118 0 
-17 -123 0 
-18 104 0 
-19 126 0 
-20 103 0 
-20 -117 0 
-21 106 0 
-22 115 0 
-23 124 0 
-24 119 0 
-25 121 0 
-26 109 0 
-27 111 0 
-28 125 0 
-29 102 0 
-29 126 0 
-29 111 0 
-29 105 0 
-30 122 0 
-30 111 0 
-30 126 0 
-30 105 0 
-31 114 0 
-32 116 0 
-32 123 0 
-32 110 0 
-32 109 0 
-32 119 0 
-33 105 0 
-34 108 0 
-35 107 0 
-36 110 0 
-37 114 0 
-37 123 0 
-37 110 0 
-37 109 0 
-37 119 0 
-38 116 0 
-39 125 0 
-39 126 0 
-39 111 0 
-39 107 0 
-40 115 0 
-40 111 0 
-40 126 0 
-40 107 0 
-41 122 0 
-42 117 0 
-43 118 0 
-44 123 0 
-45 112 0 
-46 125 0 
-46 117 0 
-46 112 0 
-46 107 0 
-46 121 0 
-47 104 0 
-47 106 0 
-47 123 0 
-47 124 0 
-47 108 0 
-47 110 0 
-47 109 0 
-48 104 0 
-49 126 0 
-50 102 0 
-50 117 0 
-50 112 0 
-50 105 0 
-50 121 0 
-51 102 0 
-52 106 0 
-53 106 0 
-53 104 0 
-53 118 0 
-53 124 0 
-53 110 0 
-53 108 0 
-53 109 0 
-54 115 0 
-55 124 0 
-56 119 0 
-57 121 0 
-58 103 0 
-58 120 0 
-58 112 0 
-58 113 0 
-58 121 0 
-26 134 0 
-27 135 0 
-28 149 0 
-29 146 0 
-29 -127 0 
-30 127 0 
-30 -146 0 
-31 137 0 
-32 137 0 
-32 -139 0 
-33 130 0 
-34 131 0 
-35 132 0 
-36 133 0 
-37 139 0 
-37 -137 0 
-38 139 0 
-39 138 0 
-39 -149 0 
-40 149 0 
-40 -138 0 
-41 146 0 
-42 141 0 
-43 144 0 
-44 145 0 
-45 136 0 
-46 142 0 
-46 -141 0 
-47 144 0 
-47 -145 0 
-48 128 0 
-49 150 0 
-50 140 0 
-50 -141 0 
-51 127 0 
-52 129 0 
-53 145 0 
-53 -144 0 
-54 138 0 
-55 148 0 
-56 143 0 
-57 147 0 
-58 141 0 
-59 134 0 
-60 127 0 
-60 150 0 
-60 135 0 
-60 130 0 
-61 137 0 
-62 139 0 
-62 145 0 
-62 133 0 
-62 134 0 
-62 143 0 
-63 130 0 
-64 132 0 
-65 131 0 
-66 137 0 
-66 144 0 
-66 131 0 
-66 134 0 
-66 143 0 
-67 149 0 
-67 150 0 
-67 135 0 
-67 132 0 
-68 146 0 
-69 140 0 
-70 142 0 
-71 144 0 
-72 149 0 
-72 141 0 
-72 136 0 
-72 132 0 
-72 147 0 
-73 128 0 
-73 129 0 
-73 145 0 
-73 148 0 
-73 131 0 
-73 133 0 
-73 134 0 
-74 127 0 
-74 141 0 
-74 136 0 
-74 130 0 
-74 147 0 
-75 138 0 
-76 143 0 
-77 147 0 
-59 154 0 
-60 163 0 
-61 155 0 
-62 155 0 
-63 151 0 
-64 152 0 
-65 153 0 
-66 157 0 
-66 -155 0 
-67 156 0 
-68 163 0 
-69 158 0 
-70 159 0 
-71 160 0 
-72 159 0 
-73 160 0 
-74 158 0 
-75 156 0 
-76 161 0 
-77 162 0 
-78 156 0 
-78 159 0 
-78 153 0 
-78 152 0 
-78 162 0 
-79 163 0 
-79 158 0 
-79 153 0 
-79 151 0 
-79 162 0 
-80 155 0 
-80 160 0 
-80 153 0 
-80 154 0 
-80 161 0 
-81 157 0 
-78 164 0 
-79 164 0 
-80 165 0 
-81 165 0 
-102 4 0 
-103 20 0 
-104 18 0 
-105 6 0 
-106 21 0 
-107 8 0 
-108 9 0 
-109 1 0 
-110 10 0 
-111 2 0 
-112 16 0 
-113 7 0 
-114 5 0 
-115 22 0 
-116 11 0 
-117 14 0 
-118 17 0 
-119 24 0 
-120 3 0 
-121 25 0 
-122 13 0 
-123 15 0 
-124 23 0 
-125 12 0 
-126 19 0 
-5 -17 0 
-127 51 30 0 
-128 48 0 
-129 52 0 
-130 33 0 
-131 34 0 
-132 35 0 
-133 36 0 
-134 26 0 
-135 27 0 
-136 45 0 
-137 31 32 0 
-138 54 39 0 
-139 38 37 0 
-140 50 0 
-141 42 58 0 
-142 46 0 
-143 56 0 
-144 43 47 0 
-145 44 53 0 
-146 41 29 0 
-147 57 0 
-148 55 0 
-149 28 40 0 
-150 49 0 
-28 -54 0 
-28 -40 0 
-29 -50 0 
-29 -41 0 
-30 -50 0 
-30 -51 0 
-31 -53 0 
-31 -32 0 
-31 -38 0 
-31 -43 0 
-32 -47 0 
-32 -53 0 
-32 -43 0 
-37 -47 0 
-37 -38 0 
-37 -53 0 
-37 -43 0 
-39 -46 0 
-39 -54 0 
-40 -46 0 
-41 -51 0 
-41 -50 0 
-42 -58 0 
-43 -47 0 
-43 -44 0 
-44 -53 0 
-46 -50 0 
-46 -54 0 
-151 63 0 
-152 64 0 
-153 65 0 
-154 59 0 
-155 61 62 0 
-156 75 67 0 
-157 66 0 
-158 69 74 0 
-159 70 72 0 
-160 71 73 0 
-161 76 0 
-162 77 0 
-163 68 60 0 
-60 -74 0 
-60 -68 0 
-61 -62 0 
-62 -73 0 
-62 -71 0 
-66 -73 0 
-67 -72 0 
-67 -75 0 
-68 -74 0 
-68 -69 0 
-69 -72 0 
-69 -74 0 
-69 -70 0 
-70 -75 0 
-70 -74 0 
-70 -72 0 
-71 -73 0 
-72 -74 0 
-72 -75 0 
-164 79 78 0 
-165 81 80 0 
-78 -79 0 
-80 -81 0 
82 0 
83 0 
84 0 
85 0 
86 0 
87 0 
88 0 
89 0 
90 0 
91 0 
92 0 
93 0 
94 0 
95 0 
96 0 
97 0 
98 0 
99 0 
100 0 
101 0 
165 0 
164 0 
